(set-logic QF_S)
(declare-fun var0 () String)
(assert (str.in.re var0 (re.++ (re.+ (re.* (str.to.re "000"))) (re.++ (re.+ (re.* (str.to.re "1"))) (re.++ (re.* (re.union (str.to.re "22") (str.to.re "3"))) (re.++ (re.union (re.union (str.to.re "44") (str.to.re "55")) (re.union (str.to.re "66") (str.to.re "777"))) (re.++ (re.union (re.+ (str.to.re "88")) (re.+ (str.to.re "99"))) (re.++ (re.+ (re.* (str.to.re "aaa"))) (re.++ (re.+ (re.* (str.to.re "bbb"))) (re.++ (re.union (re.+ (str.to.re "ccc")) (re.+ (str.to.re "ddd"))) (re.++ (re.+ (re.union (str.to.re "eee") (str.to.re "f"))) (re.++ (re.union (re.* (str.to.re "g")) (re.* (str.to.re "hh"))) (re.++ (re.* (re.+ (str.to.re "iii"))) (re.++ (re.* (re.+ (str.to.re "jjj"))) (re.++ (re.union (re.+ (str.to.re "kkk")) (re.+ (str.to.re "ll"))) (re.++ (re.union (re.* (str.to.re "m")) (re.* (str.to.re "nn"))) (re.++ (re.union (re.+ (str.to.re "ooo")) (re.+ (str.to.re "pp"))) (re.++ (re.+ (re.union (str.to.re "qq") (str.to.re "rrr"))) (re.++ (re.+ (re.* (str.to.re "s"))) (re.++ (re.* (re.+ (str.to.re "t"))) (re.++ (re.+ (re.+ (str.to.re "uu"))) (re.++ (re.union (re.* (str.to.re "v")) (re.* (str.to.re "www"))) (re.++ (re.* (re.+ (str.to.re "xx"))) (re.++ (re.* (re.+ (str.to.re "yyy"))) (re.++ (re.union (re.* (str.to.re "zz")) (re.* (str.to.re "A"))) (re.++ (re.* (re.* (str.to.re "BB"))) (re.++ (re.+ (re.* (str.to.re "C"))) (re.++ (re.union (re.* (str.to.re "D")) (re.* (str.to.re "EE"))) (re.++ (re.union (re.* (str.to.re "FF")) (re.* (str.to.re "GG"))) (re.++ (re.union (re.union (str.to.re "HH") (str.to.re "II")) (re.union (str.to.re "JJ") (str.to.re "K"))) (re.++ (re.union (re.union (str.to.re "L") (str.to.re "M")) (re.union (str.to.re "NNN") (str.to.re "O"))) (re.++ (re.+ (re.+ (str.to.re "PPP"))) (re.++ (re.* (re.* (str.to.re "QQQ"))) (re.++ (re.union (re.* (str.to.re "RR")) (re.* (str.to.re "S"))) (re.++ (re.* (re.* (str.to.re "TT"))) (re.++ (re.+ (re.union (str.to.re "UU") (str.to.re "VVV"))) (re.++ (re.+ (re.+ (str.to.re "W"))) (re.++ (re.+ (re.+ (str.to.re "XXX"))) (re.++ (re.union (re.+ (str.to.re "Y")) (re.+ (str.to.re "ZZ"))) (re.++ (re.+ (re.union (str.to.re "!!") (str.to.re """"""))) (re.++ (re.+ (re.union (str.to.re "##") (str.to.re "$$$"))) (re.++ (re.* (re.+ (str.to.re "%"))) (re.++ (re.* (re.+ (str.to.re "&&&"))) (re.++ (re.+ (re.+ (str.to.re "'''"))) (re.++ (re.* (re.union (str.to.re "((") (str.to.re "))"))) (re.++ (re.+ (re.+ (str.to.re "***"))) (re.++ (re.union (re.union (str.to.re "+") (str.to.re ",,,")) (re.union (str.to.re "-") (str.to.re ".."))) (re.++ (re.union (re.+ (str.to.re "/")) (re.+ (str.to.re ":::"))) (re.union (re.union (str.to.re ";;;") (str.to.re "<<<")) (re.union (str.to.re "=") (str.to.re ">>")))))))))))))))))))))))))))))))))))))))))))))))))))
(check-sat)